50
    1   452   500
    2   312   276
    3    30    26
    4    75    79
    5   361   364
    6    15    18
    7   258   301
    8   220   180
    9   240   193
   10   289   266
   11   244   272
   12   350   347
   13   183   160
   14   175   132
   15   181   133
   16   492   469
   17   429   393
   18   187   212
   19   195   201
   20   441   474
   21   364   357
   22   470   420
   23   461   496
   24   456   475
   25     1     1
   26   505   492
   27   472   458
   28   262   288
   29   482   438
   30   334   375
   31   121   150
   32   391   356
   33    24    16
   34    49    25
   35   292   304
   36    15    41
   37   505   472
   38   291   281
   39   370   344
   40   221   239
   41   378   427
   42   320   338
   43   268   306
   44   416   390
   45   361   403
   46   425   459
   47   138   102
   48   333   290
   49   437   419
   50     1    12
4723
